n = 8;

distances = [|0,    40,   54,   70,     99,     97,     67,     91,
             |40,   0,    135,  53,     129,    122,    24,     116,
             |54,   135,  0,    82,     75,     142,    129,    15,
             |70,   53,   82,   0,      15,     49,     71,     18,
             |99,   129,  75,   15,     0,      103,    60,     12,
             |97,   122,  142,  49,     103,    0,      58,     118,
             |67,   24,   129,  71,     60,     58,     0,      13,
             |91,   116,  15,   18,     12,     118,    13,     0   |];
